p cnf 440 800
28 40 41 0 
9 -8 -41 0 
-21 16 42 0 
39 -9 -42 0 
25 -26 43 0 
33 -13 -43 0 
-1 3 44 0 
38 -9 -44 0 
22 11 45 0 
-9 18 -45 0 
-23 33 46 0 
-27 25 -46 0 
4 37 47 0 
9 -25 -47 0 
1 35 48 0 
-25 -20 -48 0 
10 -37 49 0 
16 5 -49 0 
9 -14 50 0 
-26 20 -50 0 
-23 27 51 0 
-24 -6 -51 0 
1 -11 52 0 
20 15 -52 0 
36 28 53 0 
-27 -31 -53 0 
-29 15 54 0 
-21 -32 -54 0 
-14 -22 55 0 
31 -8 -55 0 
-30 2 56 0 
-19 22 -56 0 
38 -39 57 0 
-3 -19 -57 0 
-11 -36 58 0 
-38 4 -58 0 
-10 -2 59 0 
-5 27 -59 0 
39 -25 60 0 
10 -31 -60 0 
-23 -33 61 0 
6 15 -61 0 
-23 18 62 0 
-40 -37 -62 0 
-13 11 63 0 
25 -21 -63 0 
-4 33 64 0 
17 6 -64 0 
-24 -31 65 0 
40 25 -65 0 
-20 31 66 0 
15 -32 -66 0 
15 29 67 0 
-33 -28 -67 0 
-37 -3 68 0 
-39 -7 -68 0 
-24 13 69 0 
28 -11 -69 0 
-6 30 70 0 
-3 20 -70 0 
1 23 71 0 
-7 -34 -71 0 
20 37 72 0 
-10 30 -72 0 
-39 6 73 0 
33 -15 -73 0 
8 -16 74 0 
23 -32 -74 0 
-20 10 75 0 
29 40 -75 0 
-34 -30 76 0 
-14 36 -76 0 
-35 20 77 0 
-34 36 -77 0 
2 -13 78 0 
-27 31 -78 0 
31 -4 79 0 
-11 9 -79 0 
-12 10 80 0 
-8 3 -80 0 
5 37 81 0 
-28 -27 -81 0 
8 26 82 0 
-7 -1 -82 0 
31 -37 83 0 
-5 3 -83 0 
21 -34 84 0 
-6 -9 -84 0 
40 -25 85 0 
21 -11 -85 0 
17 11 86 0 
-32 10 -86 0 
4 -38 87 0 
-24 29 -87 0 
-21 36 88 0 
-11 1 -88 0 
-34 -29 89 0 
27 38 -89 0 
17 36 90 0 
31 -18 -90 0 
17 -27 91 0 
40 18 -91 0 
26 28 92 0 
-1 5 -92 0 
35 8 93 0 
38 -15 -93 0 
36 -19 94 0 
15 -23 -94 0 
-4 16 95 0 
19 -30 -95 0 
-16 -4 96 0 
2 27 -96 0 
-16 22 97 0 
15 -31 -97 0 
-14 -12 98 0 
-40 -34 -98 0 
-2 30 99 0 
-10 -31 -99 0 
-22 -20 100 0 
-9 -32 -100 0 
-2 -21 101 0 
29 32 -101 0 
-18 19 102 0 
24 25 -102 0 
-39 -23 103 0 
33 -12 -103 0 
21 27 104 0 
-17 8 -104 0 
37 -23 105 0 
22 -35 -105 0 
19 27 106 0 
-30 14 -106 0 
12 19 107 0 
-28 11 -107 0 
19 -20 108 0 
-2 38 -108 0 
-36 27 109 0 
40 -15 -109 0 
7 -22 110 0 
23 11 -110 0 
14 19 111 0 
20 -17 -111 0 
15 29 112 0 
-21 -5 -112 0 
1 3 113 0 
-16 -32 -113 0 
-35 -2 114 0 
9 31 -114 0 
9 -38 115 0 
29 36 -115 0 
-37 -23 116 0 
-24 3 -116 0 
-10 -7 117 0 
-30 13 -117 0 
7 23 118 0 
36 -14 -118 0 
-21 29 119 0 
-5 36 -119 0 
38 23 120 0 
-13 31 -120 0 
39 -29 121 0 
35 21 -121 0 
-6 40 122 0 
33 -7 -122 0 
18 -39 123 0 
31 -30 -123 0 
18 15 124 0 
4 25 -124 0 
2 5 125 0 
-32 37 -125 0 
15 28 126 0 
13 -21 -126 0 
-37 19 127 0 
21 -27 -127 0 
10 5 128 0 
-12 -6 -128 0 
-13 -40 129 0 
-10 15 -129 0 
-38 12 130 0 
-27 -35 -130 0 
-12 -35 131 0 
38 29 -131 0 
6 -32 132 0 
1 -22 -132 0 
18 -35 133 0 
-16 21 -133 0 
-38 -18 134 0 
-5 -6 -134 0 
37 8 135 0 
2 -38 -135 0 
12 -38 136 0 
30 23 -136 0 
-37 30 137 0 
-12 24 -137 0 
10 39 138 0 
24 20 -138 0 
18 2 139 0 
15 -6 -139 0 
-19 -38 140 0 
-39 9 -140 0 
36 -33 141 0 
-2 15 -141 0 
20 14 142 0 
-6 -27 -142 0 
2 -4 143 0 
26 -14 -143 0 
-39 10 144 0 
2 19 -144 0 
-2 24 145 0 
39 18 -145 0 
-21 14 146 0 
-27 33 -146 0 
30 -8 147 0 
12 -4 -147 0 
-23 25 148 0 
17 -9 -148 0 
-13 -24 149 0 
1 -26 -149 0 
24 -19 150 0 
17 26 -150 0 
35 -39 151 0 
-31 -40 -151 0 
26 -30 152 0 
-27 12 -152 0 
15 -32 153 0 
-11 -2 -153 0 
11 -27 154 0 
39 -20 -154 0 
-23 40 155 0 
-39 28 -155 0 
-19 28 156 0 
29 3 -156 0 
-20 -21 157 0 
30 -16 -157 0 
-27 4 158 0 
-34 11 -158 0 
-10 5 159 0 
-22 14 -159 0 
38 -5 160 0 
-34 11 -160 0 
16 20 161 0 
13 -8 -161 0 
4 -6 162 0 
7 -34 -162 0 
3 25 163 0 
-32 6 -163 0 
23 12 164 0 
25 40 -164 0 
-36 -38 165 0 
15 -6 -165 0 
12 -24 166 0 
32 28 -166 0 
-18 -29 167 0 
-1 37 -167 0 
25 -33 168 0 
-9 20 -168 0 
-6 -13 169 0 
-38 -2 -169 0 
7 -19 170 0 
-15 -28 -170 0 
34 -15 171 0 
1 -29 -171 0 
25 32 172 0 
-21 23 -172 0 
37 -20 173 0 
-9 -38 -173 0 
37 31 174 0 
10 13 -174 0 
34 -21 175 0 
29 40 -175 0 
-11 -20 176 0 
-10 36 -176 0 
18 -21 177 0 
2 4 -177 0 
-29 -33 178 0 
-17 -21 -178 0 
-19 40 179 0 
39 34 -179 0 
-21 -27 180 0 
-17 7 -180 0 
-1 -7 181 0 
31 19 -181 0 
35 -25 182 0 
-13 -34 -182 0 
-22 39 183 0 
-37 7 -183 0 
-38 -2 184 0 
39 13 -184 0 
-7 -21 185 0 
-17 -16 -185 0 
40 29 186 0 
15 39 -186 0 
-40 -39 187 0 
-6 -20 -187 0 
36 34 188 0 
29 -6 -188 0 
12 27 189 0 
-31 -6 -189 0 
-34 -24 190 0 
-31 4 -190 0 
-19 9 191 0 
29 25 -191 0 
11 16 192 0 
-24 -10 -192 0 
-7 5 193 0 
6 22 -193 0 
19 -8 194 0 
-18 3 -194 0 
-15 -19 195 0 
11 17 -195 0 
-7 -17 196 0 
-5 29 -196 0 
-15 28 197 0 
-10 14 -197 0 
-37 -1 198 0 
7 -21 -198 0 
-11 18 199 0 
5 -27 -199 0 
38 -7 200 0 
39 1 -200 0 
-23 34 201 0 
22 -20 -201 0 
-14 -40 202 0 
37 -36 -202 0 
18 -3 203 0 
30 -39 -203 0 
10 -36 204 0 
20 -8 -204 0 
-34 -22 205 0 
14 35 -205 0 
-13 -16 206 0 
-23 -10 -206 0 
-3 -35 207 0 
22 12 -207 0 
-14 -26 208 0 
-17 -18 -208 0 
37 -6 209 0 
-26 17 -209 0 
-29 -17 210 0 
25 8 -210 0 
-22 -32 211 0 
10 -5 -211 0 
7 -29 212 0 
-22 5 -212 0 
-12 -29 213 0 
-21 20 -213 0 
26 4 214 0 
-11 17 -214 0 
2 39 215 0 
-38 25 -215 0 
29 -14 216 0 
6 37 -216 0 
-33 11 217 0 
-18 -5 -217 0 
40 17 218 0 
26 -29 -218 0 
-18 34 219 0 
-35 -19 -219 0 
-1 14 220 0 
-7 -2 -220 0 
7 -18 221 0 
28 39 -221 0 
10 -23 222 0 
-31 -11 -222 0 
30 40 223 0 
9 -13 -223 0 
-23 19 224 0 
36 -18 -224 0 
-35 15 225 0 
-25 -4 -225 0 
32 7 226 0 
40 -35 -226 0 
28 -14 227 0 
1 -26 -227 0 
-27 -11 228 0 
-8 -15 -228 0 
-35 29 229 0 
-16 17 -229 0 
-22 -31 230 0 
1 -14 -230 0 
27 13 231 0 
5 -28 -231 0 
-12 27 232 0 
1 6 -232 0 
20 -39 233 0 
27 38 -233 0 
15 4 234 0 
-10 -33 -234 0 
-31 29 235 0 
27 -37 -235 0 
39 -24 236 0 
-11 -2 -236 0 
16 -39 237 0 
1 31 -237 0 
37 38 238 0 
-32 19 -238 0 
-31 -21 239 0 
-18 27 -239 0 
5 -2 240 0 
-35 1 -240 0 
12 22 241 0 
-5 -4 -241 0 
2 24 242 0 
-32 9 -242 0 
18 -38 243 0 
31 21 -243 0 
-22 28 244 0 
-25 24 -244 0 
-9 -8 245 0 
21 -18 -245 0 
-4 -15 246 0 
-18 -12 -246 0 
24 -7 247 0 
-25 -10 -247 0 
-4 -17 248 0 
38 25 -248 0 
39 5 249 0 
7 -6 -249 0 
-14 28 250 0 
31 10 -250 0 
-4 -36 251 0 
-34 -23 -251 0 
25 17 252 0 
-6 7 -252 0 
-7 25 253 0 
-11 -22 -253 0 
31 -9 254 0 
18 1 -254 0 
18 -22 255 0 
-14 37 -255 0 
40 8 256 0 
31 -7 -256 0 
33 7 257 0 
3 39 -257 0 
18 -35 258 0 
16 -6 -258 0 
-8 -40 259 0 
-23 -5 -259 0 
34 10 260 0 
22 23 -260 0 
5 -29 261 0 
33 -28 -261 0 
-22 28 262 0 
20 -15 -262 0 
32 -40 263 0 
-19 14 -263 0 
13 39 264 0 
12 -21 -264 0 
-1 -24 265 0 
-19 11 -265 0 
17 16 266 0 
-1 -9 -266 0 
6 -7 267 0 
-14 -4 -267 0 
-31 34 268 0 
-23 27 -268 0 
12 -16 269 0 
-18 27 -269 0 
-3 20 270 0 
27 38 -270 0 
-18 -2 271 0 
-32 -17 -271 0 
3 37 272 0 
-9 -12 -272 0 
29 -10 273 0 
28 4 -273 0 
25 -1 274 0 
33 -30 -274 0 
23 -24 275 0 
1 39 -275 0 
-20 -21 276 0 
26 -22 -276 0 
-37 -10 277 0 
32 -39 -277 0 
-40 26 278 0 
22 -23 -278 0 
18 5 279 0 
24 39 -279 0 
-6 -26 280 0 
15 -33 -280 0 
23 -24 281 0 
2 -8 -281 0 
28 -19 282 0 
-32 -17 -282 0 
-2 28 283 0 
-31 -12 -283 0 
-24 17 284 0 
-29 -9 -284 0 
11 -16 285 0 
23 -18 -285 0 
-12 37 286 0 
4 -30 -286 0 
25 -38 287 0 
8 -26 -287 0 
-10 2 288 0 
8 28 -288 0 
8 -28 289 0 
-5 26 -289 0 
-24 -30 290 0 
23 12 -290 0 
-38 -36 291 0 
18 -22 -291 0 
-10 33 292 0 
-31 34 -292 0 
-31 -38 293 0 
-29 -19 -293 0 
34 35 294 0 
1 -33 -294 0 
15 25 295 0 
-30 19 -295 0 
-12 20 296 0 
-34 13 -296 0 
3 -19 297 0 
11 -35 -297 0 
22 23 298 0 
15 -12 -298 0 
-5 27 299 0 
1 -36 -299 0 
1 -28 300 0 
5 24 -300 0 
7 30 301 0 
-17 -23 -301 0 
35 -39 302 0 
33 12 -302 0 
-16 -35 303 0 
-25 40 -303 0 
-34 11 304 0 
-38 2 -304 0 
-31 14 305 0 
40 -18 -305 0 
-26 -21 306 0 
29 -17 -306 0 
-26 -22 307 0 
-40 -32 -307 0 
23 33 308 0 
40 4 -308 0 
26 -18 309 0 
13 -32 -309 0 
37 35 310 0 
29 -36 -310 0 
-9 -23 311 0 
-20 19 -311 0 
21 37 312 0 
5 -38 -312 0 
-4 16 313 0 
8 3 -313 0 
-16 40 314 0 
20 -21 -314 0 
24 -4 315 0 
33 34 -315 0 
19 2 316 0 
-7 -3 -316 0 
27 -10 317 0 
40 38 -317 0 
14 37 318 0 
-20 -18 -318 0 
-24 26 319 0 
37 35 -319 0 
1 -32 320 0 
-25 19 -320 0 
16 8 321 0 
23 22 -321 0 
23 -19 322 0 
-25 36 -322 0 
1 -13 323 0 
-10 -2 -323 0 
-30 7 324 0 
-19 31 -324 0 
22 -1 325 0 
-28 2 -325 0 
36 -18 326 0 
11 -5 -326 0 
26 -33 327 0 
36 -38 -327 0 
-40 35 328 0 
33 5 -328 0 
33 9 329 0 
-11 -2 -329 0 
1 -20 330 0 
-24 6 -330 0 
-19 -16 331 0 
-35 -1 -331 0 
20 40 332 0 
33 29 -332 0 
15 -17 333 0 
18 -10 -333 0 
-14 -34 334 0 
7 33 -334 0 
-3 17 335 0 
-27 -36 -335 0 
-34 3 336 0 
-4 -16 -336 0 
-10 -35 337 0 
8 4 -337 0 
-29 26 338 0 
-31 39 -338 0 
4 2 339 0 
-24 34 -339 0 
36 -40 340 0 
12 31 -340 0 
27 -34 341 0 
-4 -19 -341 0 
3 30 342 0 
-11 7 -342 0 
10 30 343 0 
-24 -36 -343 0 
-6 34 344 0 
-23 -16 -344 0 
-32 -24 345 0 
-18 25 -345 0 
40 34 346 0 
-18 26 -346 0 
-35 26 347 0 
-15 28 -347 0 
-28 29 348 0 
-18 -9 -348 0 
-19 -10 349 0 
38 4 -349 0 
39 10 350 0 
-33 -7 -350 0 
4 -18 351 0 
-6 -16 -351 0 
40 17 352 0 
25 23 -352 0 
-2 37 353 0 
15 -25 -353 0 
12 2 354 0 
18 31 -354 0 
25 -28 355 0 
-24 -30 -355 0 
-5 -21 356 0 
34 33 -356 0 
12 -25 357 0 
-22 31 -357 0 
16 26 358 0 
-13 24 -358 0 
2 37 359 0 
28 -5 -359 0 
-27 8 360 0 
-26 5 -360 0 
-15 -11 361 0 
12 16 -361 0 
-12 1 362 0 
-38 5 -362 0 
-35 -25 363 0 
-17 -6 -363 0 
1 -30 364 0 
39 -12 -364 0 
-7 5 365 0 
35 18 -365 0 
14 -36 366 0 
22 -6 -366 0 
-14 26 367 0 
28 -4 -367 0 
-10 -17 368 0 
-31 27 -368 0 
-16 9 369 0 
14 34 -369 0 
3 11 370 0 
-16 7 -370 0 
31 -4 371 0 
-37 -36 -371 0 
32 2 372 0 
-24 25 -372 0 
-1 -12 373 0 
-28 -25 -373 0 
21 36 374 0 
1 -26 -374 0 
5 -37 375 0 
27 7 -375 0 
-35 15 376 0 
7 -31 -376 0 
-32 -21 377 0 
-5 13 -377 0 
5 -19 378 0 
-25 39 -378 0 
-12 -22 379 0 
1 -23 -379 0 
-15 -23 380 0 
17 -13 -380 0 
31 14 381 0 
-25 10 -381 0 
25 24 382 0 
-10 -18 -382 0 
31 8 383 0 
-5 -20 -383 0 
-11 -28 384 0 
40 -21 -384 0 
-7 -27 385 0 
6 -1 -385 0 
-34 10 386 0 
-38 40 -386 0 
-1 -2 387 0 
14 30 -387 0 
-1 -4 388 0 
-6 22 -388 0 
24 -7 389 0 
-36 -22 -389 0 
-29 30 390 0 
-31 12 -390 0 
20 22 391 0 
18 -28 -391 0 
-1 6 392 0 
-7 36 -392 0 
-16 8 393 0 
32 27 -393 0 
37 -3 394 0 
-9 -16 -394 0 
35 14 395 0 
40 5 -395 0 
40 -18 396 0 
13 -7 -396 0 
-26 -23 397 0 
19 14 -397 0 
-3 -11 398 0 
-24 23 -398 0 
-5 1 399 0 
40 -33 -399 0 
-22 35 400 0 
36 -40 -400 0 
30 -8 401 0 
-40 22 -401 0 
-23 -3 402 0 
6 39 -402 0 
26 -9 403 0 
28 4 -403 0 
7 21 404 0 
-10 8 -404 0 
20 26 405 0 
-31 -11 -405 0 
-15 -34 406 0 
6 18 -406 0 
-29 27 407 0 
11 -35 -407 0 
25 31 408 0 
35 -38 -408 0 
10 -23 409 0 
21 -19 -409 0 
26 -15 410 0 
28 40 -410 0 
29 -5 411 0 
-6 35 -411 0 
-30 19 412 0 
23 -6 -412 0 
-21 14 413 0 
4 38 -413 0 
-39 14 414 0 
27 -20 -414 0 
-29 -6 415 0 
18 36 -415 0 
28 -40 416 0 
-13 -6 -416 0 
-28 -22 417 0 
-13 -10 -417 0 
35 12 418 0 
-13 31 -418 0 
-31 20 419 0 
17 -22 -419 0 
-4 17 420 0 
-31 25 -420 0 
-21 3 421 0 
38 -6 -421 0 
-16 1 422 0 
-3 33 -422 0 
-24 36 423 0 
2 22 -423 0 
26 10 424 0 
-6 9 -424 0 
2 37 425 0 
18 24 -425 0 
-5 -24 426 0 
-12 -31 -426 0 
25 -21 427 0 
38 -8 -427 0 
2 27 428 0 
-14 7 -428 0 
12 -8 429 0 
-14 15 -429 0 
39 -20 430 0 
-9 -8 -430 0 
-4 17 431 0 
28 20 -431 0 
11 23 432 0 
34 26 -432 0 
34 -6 433 0 
24 38 -433 0 
38 22 434 0 
-24 17 -434 0 
-9 33 435 0 
-18 -26 -435 0 
16 38 436 0 
-3 -8 -436 0 
-19 -30 437 0 
15 25 -437 0 
17 -38 438 0 
31 39 -438 0 
38 -15 439 0 
2 -25 -439 0 
-33 -6 440 0 
-18 -5 -440 0 
c ec1ec3b9addba0a18682f13b7c8eb8160f156452a2b687aebbc87aedb0b32729
